p td 22 51
2 1
4 1
5 3
6 5
7 2
7 1
7 6
8 3
8 1
10 4
11 1
12 4
12 7
13 8
13 12
13 10
14 1
14 3
14 2
14 8
15 7
15 2
16 11
16 10
17 1
17 13
17 16
18 3
18 11
18 12
18 5
19 5
19 3
19 4
19 9
19 1
20 9
20 5
20 14
20 17
20 2
21 5
21 12
21 10
21 11
22 3
22 20
22 5
22 14
22 17
22 12
